100 4874
248 558 160 1120 1120 124 1440 1280 372 124 248 62 800 800 248 1280 248 1120 320 1440 320 800 800 960 62 1280 1280 1600 480 1280 1280 62 310 496 186 372 1280 372 496 248 1280 1600 620 320 310 1440 800 1280 1440 620 1280 372 480 310 160 1440 1280 960 1280 248 558 434 1280 1440 496 496 372 248 160 1600 248 620 496 310 160 62 800 1120 124 480 960 320 434 186 496 186 960 620 372 960 496 480 160 372 1440 62 124 480 496 434 
168 378 140 980 980 84 1260 1120 252 84 168 42 700 700 168 1120 168 980 280 1260 280 700 700 840 42 1120 1120 1400 420 1120 1120 42 210 336 126 252 1120 252 336 168 1120 1400 420 280 210 1260 700 1120 1260 420 1120 252 420 210 140 1260 1120 840 1120 168 378 294 1120 1260 336 336 252 168 140 1400 168 420 336 210 140 42 700 980 84 420 840 280 294 126 336 126 840 420 252 840 336 420 140 252 1260 42 84 420 336 294 
